p tw 24 162
0 1
0 2
0 3
0 4
0 11
0 17
0 15
0 23
0 9
0 19
0 16
0 8
0 21
0 14
0 20
0 7
0 12
0 10
0 13
1 2
1 8
1 9
1 12
1 19
1 3
1 17
1 15
1 22
1 23
1 6
1 21
1 13
1 20
2 4
2 10
2 12
2 14
2 5
2 18
2 16
2 23
2 8
2 17
3 4
3 12
3 13
3 15
3 16
3 7
3 14
3 17
3 22
3 23
3 8
3 10
3 18
3 19
4 8
4 9
4 10
4 11
4 16
4 13
4 15
4 6
4 21
5 6
5 7
5 18
5 15
5 22
5 9
5 16
5 20
5 11
5 21
6 7
6 18
6 19
6 9
6 11
6 23
6 17
6 21
6 16
6 12
7 14
7 11
7 18
7 23
7 21
7 12
7 19
8 9
8 19
8 20
8 23
8 15
8 10
8 18
8 13
8 17
9 11
9 13
9 19
9 20
9 10
9 14
9 16
9 22
9 17
9 15
9 18
9 23
10 16
10 22
10 23
10 14
10 18
10 13
10 17
11 17
11 18
11 19
11 14
11 23
11 16
11 21
12 13
12 14
12 15
12 18
12 19
12 20
12 21
13 19
13 20
13 23
13 15
14 15
14 21
14 22
14 23
14 20
15 16
15 21
15 22
15 18
15 23
15 19
16 23
16 21
16 22
18 19
18 23
19 20
19 21
19 23
20 21
21 22
21 23
22 23
